p wcnf 30 112 3
5 5 1 0
5 7 9 8 0
5 12 0
5 19 16 0
5 22 23 24 25 21 0
5 29 26 28 30 0
3 1 2 3 4 5 0
3 6 7 8 9 10 0
3 11 12 13 14 15 0
3 16 17 18 19 20 0
3 21 22 23 24 25 0
3 26 27 28 29 30 0
3 -1 -2 0
3 -1 -3 0
3 -1 -4 0
3 -1 -5 0
3 -2 -3 0
3 -2 -4 0
3 -2 -5 0
3 -3 -4 0
3 -3 -5 0
3 -4 -5 0
3 -6 -7 0
3 -6 -8 0
3 -6 -9 0
3 -6 -10 0
3 -7 -8 0
3 -7 -9 0
3 -7 -10 0
3 -8 -9 0
3 -8 -10 0
3 -9 -10 0
3 -11 -12 0
3 -11 -13 0
3 -11 -14 0
3 -11 -15 0
3 -12 -13 0
3 -12 -14 0
3 -12 -15 0
3 -13 -14 0
3 -13 -15 0
3 -14 -15 0
3 -16 -17 0
3 -16 -18 0
3 -16 -19 0
3 -16 -20 0
3 -17 -18 0
3 -17 -19 0
3 -17 -20 0
3 -18 -19 0
3 -18 -20 0
3 -19 -20 0
3 -21 -22 0
3 -21 -23 0
3 -21 -24 0
3 -21 -25 0
3 -22 -23 0
3 -22 -24 0
3 -22 -25 0
3 -23 -24 0
3 -23 -25 0
3 -24 -25 0
3 -26 -27 0
3 -26 -28 0
3 -26 -29 0
3 -26 -30 0
3 -27 -28 0
3 -27 -29 0
3 -27 -30 0
3 -28 -29 0
3 -28 -30 0
3 -29 -30 0
3 2 5 3 17 20 18 9 6 0
3 2 4 3 17 19 16 10 8 0
3 5 1 3 17 20 7 9 8 0
3 2 4 1 19 18 7 10 8 0
3 2 5 3 -17 7 0
3 4 3 17 19 18 7 10 6 0
3 -3 17 20 18 9 8 0
3 -2 -20 7 0
3 -5 17 -7 0
3 -1 17 20 16 9 8 0
3 17 20 18 27 30 28 24 21 0
3 17 19 18 27 29 26 25 23 0
3 20 16 18 27 30 22 24 23 0
3 17 19 16 29 28 22 25 23 0
3 17 20 18 -27 22 0
3 19 18 27 29 28 22 25 21 0
3 -18 27 30 28 24 23 0
3 -17 -30 22 0
3 -20 27 -22 0
3 -16 27 30 26 24 23 0
3 2 5 3 22 25 23 14 11 0
3 2 4 3 22 24 21 15 13 0
3 5 1 3 22 25 12 14 13 0
3 2 4 1 24 23 12 15 13 0
3 2 5 3 -22 12 0
3 4 3 22 24 23 12 15 11 0
3 -3 22 25 23 14 13 0
3 -2 -25 12 0
3 -5 22 -12 0
3 -1 22 25 21 14 13 0
3 7 10 8 27 30 28 14 11 0
3 7 9 8 27 29 26 15 13 0
3 10 6 8 27 30 12 14 13 0
3 7 9 6 29 28 12 15 13 0
3 7 10 8 -27 12 0
3 9 8 27 29 28 12 15 11 0
3 -8 27 30 28 14 13 0
3 -7 -30 12 0
3 -10 27 -12 0
3 -6 27 30 26 14 13 0
